

















































































2 4 
24 42 59 
66 5 
18 50 
26 0 21 
25 20 37 
40 27 
31 56 16 
10 67 
68 49 
38 13 53 
29 11 
62 60 
71 9 41 
35 48 
58 73 
19 23 
22 46 57 
17 69 
36 74 
76 32 70 
75 55 39 
72 65 15 
28 34 
44 63 
1 54 

8 12 
14 51 64 
61 52 
43 47 30 
6 33 
3 45 7 
